assets/logs/9_14x14_clingo/9_14x14_clingo.solution.log

---------------------------------------------------------
|  0|103| 93|179| 76| 30| 89| 70|125| 34| 81| 42| 48|  0|
---------------------------------------------------------
|  0|177| 26|105| 91| 80| 74| 32| 83| 68|127| 36| 79| 44|
---------------------------------------------------------
|101| 95|  0| 78| 28|107|124| 87| 72|123| 40| 46|129| 50|
---------------------------------------------------------
|175| 24| 99|109| 82| 96|119|  0|  0| 85| 66| 52| 38| 77|
---------------------------------------------------------
| 97|111|  0| 98|117|122| 92|126|121| 54| 45| 75|  0|131|
---------------------------------------------------------
| 22|173|115| 84| 94|  5|102| 56| 47| 64| 71|133| 43|  0|
---------------------------------------------------------
|113| 86| 20|170|100| 90|120|  3|128| 58|137| 62| 73| 67|
---------------------------------------------------------
| 18|168|171| 88|  0|  1|  7|104|139| 49|130| 69|135| 41|
---------------------------------------------------------
|  0|  0|172|  0|140|118|141|134|  9| 19| 60|  0| 65| 23|
---------------------------------------------------------
|166| 16|154|169|146| 13|138| 17|106|132| 51| 21| 39|153|
---------------------------------------------------------
|152|174|148|142|116|143|  0| 11|136|  2|108|151| 25| 63|
---------------------------------------------------------
| 14|164| 10|156|167|144| 15|  4|110| 53| 59| 33|155| 37|
---------------------------------------------------------
|176|150|160|  0|  8|114|145|163| 57| 31|149|159| 61| 27|
---------------------------------------------------------
|162| 12|178|  0|158|165|  6|112|147|161| 55| 29| 35|157|
---------------------------------------------------------

| n = 14 | k = 6 | coverage = 184, 93.87755102040816%
 Time 300.002
 Name 9_14x14_clingo

