assets/logs/9_14x14_clingo/9_14x14_clingo.log
clingo version 5.4.0
Reading from ...ts/logs/9_14x14_clingo/knights_tour.lp ...
Solving...
Answer: 1
occ(1,9,12) occ(1,3,3) occ(1,11,7) occ(1,5,3) occ(1,9,2) occ(1,4,9) occ(2,8,6) occ(3,11,10) coverage(6)
Optimization: -6
Answer: 2
occ(1,9,12) occ(1,3,3) occ(1,11,7) occ(1,5,3) occ(1,9,2) occ(1,4,9) occ(2,8,6) occ(3,11,10) coverage(139) occ(33,1,9) occ(52,1,4) occ(122,1,3) occ(125,1,5) occ(128,1,6) occ(152,1,12) occ(156,1,10) occ(35,2,11) occ(36,2,3) occ(50,2,2) occ(54,2,6) occ(58,2,8) occ(123,2,7) occ(124,2,5) occ(130,2,4) occ(150,2,10) occ(31,3,8) occ(38,3,1) occ(39,3,14) occ(51,3,12) occ(60,3,10) occ(120,3,2) occ(126,3,7) occ(127,3,4) occ(132,3,6) occ(154,3,11) occ(158,3,9) occ(30,4,6) occ(34,4,2) occ(37,4,12) occ(48,4,3) occ(49,4,10) occ(53,4,14) occ(56,4,7) occ(64,4,13) occ(121,4,8) occ(134,4,4) occ(148,4,11) occ(28,5,8) occ(29,5,7) occ(32,5,4) occ(40,5,2) occ(41,5,13) occ(47,5,12) occ(62,5,11) occ(68,5,14) occ(113,5,9) occ(118,5,1) occ(129,5,5) occ(136,5,6) occ(160,5,10) occ(22,6,6) occ(27,6,5) occ(45,6,14) occ(46,6,4) occ(55,6,13) occ(66,6,12) occ(106,6,2) occ(111,6,11) occ(116,6,3) occ(119,6,9) occ(131,6,7) occ(146,6,10) occ(162,6,8) occ(18,7,9) occ(25,7,3) occ(26,7,7) occ(42,7,1) occ(43,7,12) occ(70,7,13) occ(108,7,4) occ(115,7,8) occ(135,7,10) occ(138,7,5) occ(164,7,6) occ(168,7,2) occ(20,8,7) occ(24,8,5) occ(44,8,3) occ(57,8,14) occ(72,8,11) occ(80,8,13) occ(104,8,1) occ(109,8,12) occ(114,8,2) occ(117,8,10) occ(133,8,8) occ(144,8,9) occ(166,8,4) occ(4,9,8) occ(16,9,10) occ(23,9,4) occ(61,9,11) occ(74,9,13) occ(85,9,7) occ(93,9,5) occ(107,9,14) occ(110,9,3) occ(137,9,9) occ(140,9,6) occ(170,9,1) occ(6,10,10) occ(21,10,6) occ(59,10,13) occ(77,10,4) occ(78,10,12) occ(82,10,14) occ(83,10,5) occ(87,10,9) occ(95,10,3) occ(99,10,7) occ(102,10,2) occ(103,10,11) occ(112,10,1) occ(142,10,8) occ(8,11,8) occ(14,11,11) occ(19,11,4) occ(63,11,12) occ(76,11,14) occ(81,11,3) occ(91,11,6) occ(97,11,5) occ(101,11,9) occ(105,11,13) occ(172,11,2) occ(10,12,10) occ(17,12,2) occ(75,12,3) occ(79,12,5) occ(84,12,13) occ(88,12,11) occ(89,12,8) occ(100,12,1) occ(174,12,4) occ(182,12,12) occ(186,12,14) occ(5,13,11) occ(9,13,7) occ(12,13,12) occ(13,13,3) occ(65,13,13) occ(69,13,9) occ(73,13,5) occ(92,13,8) occ(96,13,4) occ(176,13,6) occ(180,13,10) occ(7,14,9) occ(11,14,5) occ(15,14,1) occ(67,14,11) occ(71,14,7) occ(86,14,12) occ(90,14,10) occ(94,14,6) occ(98,14,2) occ(178,14,8) occ(184,14,13)
Optimization: -139
Answer: 3
occ(1,9,12) occ(1,3,3) occ(1,11,7) occ(1,5,3) occ(1,9,2) occ(1,4,9) occ(2,8,6) occ(3,11,10) coverage(148) occ(20,1,4) occ(24,1,8) occ(39,1,10) occ(46,1,9) occ(49,1,11) occ(126,1,3) occ(132,1,2) occ(18,2,2) occ(22,2,6) occ(37,2,12) occ(41,2,8) occ(44,2,7) occ(47,2,9) occ(48,2,11) occ(51,2,13) occ(124,2,5) occ(130,2,4) occ(136,2,3) occ(26,3,7) occ(31,3,8) occ(35,3,10) occ(36,3,4) occ(43,3,6) occ(50,3,13) occ(56,3,12) occ(128,3,2) occ(134,3,1) occ(138,3,5) occ(142,3,9) occ(16,4,3) occ(34,4,2) occ(42,4,6) occ(45,4,8) occ(53,4,14) occ(54,4,10) occ(64,4,13) occ(122,4,4) occ(140,4,7) occ(28,5,8) occ(29,5,7) occ(32,5,4) occ(33,5,9) occ(38,5,5) occ(52,5,12) occ(58,5,11) occ(68,5,14) occ(120,5,2) occ(144,5,10) occ(6,6,10) occ(14,6,4) occ(27,6,5) occ(30,6,6) occ(40,6,7) occ(55,6,13) occ(62,6,14) occ(66,6,12) occ(116,6,3) occ(117,6,2) occ(146,6,8) occ(4,7,8) occ(12,7,6) occ(25,7,3) occ(60,7,12) occ(70,7,13) occ(111,7,2) occ(118,7,1) occ(121,7,5) occ(125,7,7) occ(129,7,9) occ(135,7,10) occ(8,8,9) occ(13,8,10) occ(23,8,5) occ(57,8,14) occ(72,8,11) occ(80,8,13) occ(109,8,4) occ(114,8,2) occ(115,8,1) occ(119,8,3) occ(133,8,8) occ(139,8,7) occ(10,9,7) occ(61,9,11) occ(74,9,13) occ(93,9,5) occ(112,9,4) occ(113,9,3) occ(123,9,6) occ(127,9,8) occ(131,9,10) occ(137,9,9) occ(11,10,11) occ(15,10,9) occ(21,10,6) occ(59,10,13) occ(77,10,4) occ(78,10,12) occ(82,10,14) occ(95,10,3) occ(103,10,7) occ(107,10,5) occ(108,10,1) occ(141,10,8) occ(19,11,8) occ(63,11,12) occ(76,11,14) occ(91,11,6) occ(97,11,5) occ(101,11,9) occ(110,11,3) occ(145,11,11) occ(9,12,12) occ(17,12,10) occ(75,12,3) occ(79,12,5) occ(84,12,13) occ(85,12,8) occ(88,12,11) occ(99,12,7) occ(100,12,1) occ(105,12,6) occ(106,12,2) occ(143,12,9) occ(5,13,11) occ(65,13,13) occ(69,13,9) occ(73,13,5) occ(83,13,6) occ(89,13,7) occ(92,13,8) occ(96,13,4) occ(102,13,3) occ(147,13,12) occ(7,14,13) occ(67,14,11) occ(71,14,7) occ(81,14,4) occ(86,14,12) occ(87,14,9) occ(90,14,10) occ(94,14,6) occ(98,14,2) occ(104,14,1)
Optimization: -148
Answer: 4
occ(1,9,12) occ(1,3,3) occ(1,11,7) occ(1,5,3) occ(1,9,2) occ(1,4,9) occ(2,8,6) occ(3,11,10) coverage(167) occ(43,1,12) occ(49,1,11) occ(53,1,9) occ(57,1,5) occ(61,1,3) occ(67,1,8) occ(120,1,2) occ(128,1,4) occ(133,1,7) occ(39,2,11) occ(45,2,10) occ(50,2,12) occ(55,2,7) occ(63,2,5) occ(68,2,13) occ(69,2,6) occ(118,2,4) occ(126,2,2) occ(131,2,9) occ(132,2,3) occ(37,3,9) occ(41,3,13) occ(47,3,12) occ(48,3,14) occ(51,3,10) occ(59,3,4) occ(65,3,7) occ(66,3,11) occ(71,3,8) occ(116,3,2) occ(122,3,1) occ(130,3,5) occ(135,3,6) occ(21,4,4) occ(35,4,7) occ(52,4,11) occ(64,4,13) occ(70,4,12) occ(73,4,6) occ(109,4,14) occ(124,4,3) occ(129,4,10) occ(134,4,2) occ(137,4,8) occ(6,5,9) occ(16,5,6) occ(28,5,10) occ(32,5,8) occ(33,5,5) occ(46,5,13) occ(62,5,11) occ(75,5,4) occ(107,5,12) occ(114,5,1) occ(10,6,8) occ(14,6,4) occ(19,6,3) occ(23,6,5) occ(34,6,6) occ(54,6,12) occ(58,6,14) occ(72,6,11) occ(77,6,2) occ(111,6,13) occ(127,6,9) occ(136,6,1) occ(139,6,7) occ(166,6,10) occ(4,7,8) occ(8,7,10) occ(12,7,6) occ(18,7,5) occ(26,7,11) occ(30,7,9) occ(31,7,4) occ(44,7,14) occ(60,7,12) occ(105,7,13) occ(112,7,2) occ(125,7,7) occ(138,7,3) occ(17,8,2) occ(25,8,4) occ(36,8,7) occ(56,8,13) occ(74,8,12) occ(79,8,3) occ(103,8,11) occ(113,8,14) occ(123,8,5) occ(140,8,1) occ(141,8,8) occ(164,8,9) occ(13,9,3) occ(20,9,6) occ(24,9,10) occ(29,9,5) occ(38,9,9) occ(42,9,13) occ(76,9,14) occ(110,9,1) occ(117,9,11) occ(121,9,7) occ(144,9,4) occ(148,9,8) occ(15,10,1) occ(22,10,8) occ(27,10,3) occ(40,10,11) occ(81,10,4) occ(101,10,12) occ(115,10,13) occ(119,10,9) occ(142,10,2) occ(143,10,7) occ(146,10,6) occ(147,10,5) occ(162,10,10) occ(11,11,4) occ(78,11,13) occ(83,11,6) occ(87,11,8) occ(90,11,5) occ(108,11,2) occ(149,11,3) occ(150,11,9) occ(154,11,11) occ(160,11,12) occ(80,12,11) occ(89,12,10) occ(92,12,7) occ(93,12,12) occ(96,12,9) occ(99,12,13) occ(102,12,8) occ(106,12,4) occ(145,12,6) occ(155,12,5) occ(158,12,14) occ(161,12,2) occ(5,13,9) occ(9,13,5) occ(84,13,8) occ(85,13,7) occ(88,13,4) occ(95,13,14) occ(98,13,11) occ(104,13,6) occ(151,13,2) occ(152,13,10) occ(156,13,12) occ(157,13,3) occ(165,13,1) occ(7,14,7) occ(82,14,10) occ(86,14,6) occ(91,14,11) occ(94,14,8) occ(97,14,12) occ(100,14,9) occ(153,14,4) occ(159,14,1) occ(163,14,3)
Optimization: -167
Answer: 5
occ(1,9,12) occ(1,3,3) occ(1,11,7) occ(1,5,3) occ(1,9,2) occ(1,4,9) occ(2,8,6) occ(3,11,10) coverage(168) occ(43,1,12) occ(49,1,11) occ(53,1,9) occ(57,1,5) occ(61,1,3) occ(67,1,8) occ(120,1,2) occ(128,1,4) occ(133,1,7) occ(39,2,11) occ(45,2,10) occ(50,2,12) occ(55,2,7) occ(63,2,5) occ(68,2,13) occ(69,2,6) occ(118,2,4) occ(126,2,2) occ(131,2,9) occ(132,2,3) occ(37,3,9) occ(41,3,13) occ(47,3,12) occ(48,3,14) occ(51,3,10) occ(59,3,4) occ(65,3,7) occ(66,3,11) occ(71,3,8) occ(116,3,2) occ(122,3,1) occ(130,3,5) occ(135,3,6) occ(21,4,4) occ(35,4,7) occ(52,4,11) occ(64,4,13) occ(70,4,12) occ(73,4,6) occ(109,4,14) occ(124,4,3) occ(129,4,10) occ(134,4,2) occ(137,4,8) occ(6,5,9) occ(16,5,6) occ(28,5,10) occ(32,5,8) occ(33,5,5) occ(46,5,13) occ(62,5,11) occ(75,5,4) occ(107,5,12) occ(114,5,1) occ(10,6,8) occ(14,6,4) occ(19,6,3) occ(23,6,5) occ(34,6,6) occ(54,6,12) occ(58,6,14) occ(72,6,11) occ(77,6,2) occ(111,6,13) occ(127,6,9) occ(136,6,1) occ(139,6,7) occ(166,6,10) occ(4,7,8) occ(8,7,10) occ(12,7,6) occ(18,7,5) occ(26,7,11) occ(30,7,9) occ(31,7,4) occ(44,7,14) occ(60,7,12) occ(105,7,13) occ(112,7,2) occ(125,7,7) occ(138,7,3) occ(17,8,2) occ(25,8,4) occ(36,8,7) occ(56,8,13) occ(74,8,12) occ(79,8,3) occ(103,8,11) occ(113,8,14) occ(123,8,5) occ(140,8,1) occ(141,8,8) occ(164,8,9) occ(13,9,3) occ(20,9,6) occ(24,9,10) occ(29,9,5) occ(38,9,9) occ(42,9,13) occ(76,9,14) occ(110,9,1) occ(117,9,11) occ(121,9,7) occ(144,9,4) occ(148,9,8) occ(15,10,1) occ(22,10,8) occ(27,10,3) occ(40,10,11) occ(81,10,4) occ(101,10,12) occ(115,10,13) occ(119,10,9) occ(142,10,2) occ(143,10,7) occ(146,10,6) occ(147,10,5) occ(162,10,10) occ(11,11,4) occ(78,11,13) occ(83,11,6) occ(87,11,8) occ(90,11,5) occ(108,11,2) occ(149,11,3) occ(150,11,9) occ(154,11,11) occ(160,11,12) occ(80,12,11) occ(89,12,10) occ(92,12,7) occ(93,12,12) occ(96,12,9) occ(99,12,13) occ(102,12,8) occ(106,12,4) occ(145,12,6) occ(155,12,5) occ(158,12,14) occ(161,12,2) occ(167,12,3) occ(5,13,9) occ(9,13,5) occ(84,13,8) occ(85,13,7) occ(88,13,4) occ(95,13,14) occ(98,13,11) occ(104,13,6) occ(151,13,2) occ(152,13,10) occ(156,13,12) occ(157,13,3) occ(165,13,1) occ(7,14,7) occ(82,14,10) occ(86,14,6) occ(91,14,11) occ(94,14,8) occ(97,14,12) occ(100,14,9) occ(153,14,4) occ(159,14,1) occ(163,14,3)
Optimization: -168
Answer: 6
occ(1,9,12) occ(1,3,3) occ(1,11,7) occ(1,5,3) occ(1,9,2) occ(1,4,9) occ(2,8,6) occ(3,11,10) coverage(169) occ(31,1,2) occ(39,1,4) occ(43,1,8) occ(49,1,11) occ(53,1,9) occ(57,1,5) occ(61,1,3) occ(64,1,14) occ(127,1,12) occ(131,1,10) occ(138,1,7) occ(167,1,6) occ(27,2,3) occ(33,2,4) occ(37,2,2) occ(41,2,6) occ(45,2,10) occ(55,2,7) occ(66,2,12) occ(72,2,11) occ(125,2,14) occ(133,2,8) occ(136,2,9) occ(29,3,1) occ(47,3,12) occ(51,3,10) occ(59,3,4) occ(62,3,13) occ(63,3,2) occ(68,3,14) occ(78,3,7) occ(129,3,11) occ(135,3,6) occ(140,3,8) occ(161,3,9) occ(165,3,5) occ(25,4,4) occ(35,4,3) occ(70,4,12) occ(74,4,10) occ(80,4,5) occ(123,4,13) occ(134,4,8) occ(142,4,6) occ(150,4,2) occ(159,4,11) occ(163,4,7) occ(16,5,10) occ(20,5,6) occ(23,5,2) occ(60,5,12) occ(65,5,1) occ(75,5,4) occ(76,5,8) occ(113,5,13) occ(117,5,9) occ(121,5,11) occ(137,5,7) occ(154,5,5) occ(12,6,13) occ(18,6,8) occ(58,6,14) occ(77,6,2) occ(82,6,4) occ(103,6,7) occ(115,6,11) occ(132,6,9) occ(141,6,10) occ(144,6,5) occ(148,6,1) occ(152,6,3) occ(157,6,12) occ(14,7,11) occ(21,7,1) occ(22,7,7) occ(56,7,12) occ(67,7,2) occ(73,7,5) occ(105,7,9) occ(111,7,14) occ(119,7,10) occ(139,7,8) occ(146,7,3) occ(156,7,4) occ(10,8,12) occ(19,8,3) occ(54,8,14) occ(69,8,4) occ(79,8,1) occ(84,8,5) occ(85,8,2) occ(92,8,7) occ(101,8,8) occ(107,8,11) occ(130,8,10) occ(143,8,9) occ(155,8,13) occ(8,9,10) occ(17,9,1) occ(24,9,8) occ(71,9,6) occ(83,9,4) occ(90,9,9) occ(94,9,5) occ(97,9,7) occ(109,9,13) occ(145,9,11) occ(158,9,3) occ(4,10,7) occ(26,10,10) occ(46,10,8) occ(52,10,13) occ(81,10,2) occ(86,10,6) occ(87,10,3) occ(95,10,5) occ(99,10,9) occ(110,10,4) occ(128,10,11) occ(153,10,14) occ(160,10,1) occ(6,11,9) occ(15,11,2) occ(30,11,13) occ(50,11,11) occ(88,11,8) occ(89,11,5) occ(93,11,3) occ(96,11,6) occ(106,11,1) occ(147,11,12) occ(164,11,4) occ(5,12,8) occ(28,12,11) occ(38,12,10) occ(44,12,7) occ(48,12,9) occ(102,12,4) occ(108,12,3) occ(112,12,5) occ(126,12,12) occ(151,12,13) occ(162,12,2) occ(168,12,1) occ(9,13,5) occ(13,13,1) occ(32,13,12) occ(36,13,8) occ(42,13,9) occ(91,13,4) occ(98,13,7) occ(104,13,2) occ(116,13,6) occ(120,13,10) occ(124,13,14) occ(149,13,11) occ(166,13,3) occ(7,14,7) occ(11,14,3) occ(34,14,10) occ(40,14,11) occ(100,14,5) occ(114,14,4) occ(118,14,8) occ(122,14,12)
Optimization: -169
Answer: 7
occ(1,9,12) occ(1,3,3) occ(1,11,7) occ(1,5,3) occ(1,9,2) occ(1,4,9) occ(2,8,6) occ(3,11,10) coverage(170) occ(48,1,10) occ(63,1,12) occ(67,1,8) occ(71,1,4) occ(78,1,3) occ(87,1,2) occ(91,1,6) occ(133,1,9) occ(137,1,13) occ(145,1,11) occ(46,2,8) occ(50,2,12) occ(59,2,9) occ(65,2,10) occ(69,2,6) occ(73,2,2) occ(76,2,1) occ(80,2,5) occ(89,2,4) occ(131,2,7) occ(135,2,11) occ(143,2,13) occ(44,3,6) occ(61,3,11) occ(72,3,4) occ(82,3,7) occ(85,3,1) occ(93,3,5) occ(129,3,9) occ(139,3,12) occ(147,3,10) occ(26,4,12) occ(38,4,6) occ(42,4,4) occ(52,4,13) occ(57,4,10) occ(74,4,2) occ(75,4,3) occ(127,4,11) occ(141,4,14) occ(151,4,7) occ(155,4,5) occ(28,5,10) occ(60,5,12) occ(70,5,5) occ(77,5,1) occ(83,5,2) occ(84,5,8) occ(95,5,4) occ(125,5,13) occ(130,5,11) occ(136,5,6) occ(149,5,9) occ(157,5,7) occ(23,6,3) occ(24,6,13) occ(30,6,12) occ(36,6,7) occ(40,6,5) occ(54,6,14) occ(55,6,11) occ(58,6,10) occ(81,6,4) occ(98,6,2) occ(128,6,9) occ(134,6,8) occ(153,6,6) occ(19,7,4) occ(34,7,9) occ(56,7,12) occ(62,7,11) occ(68,7,6) occ(79,7,2) occ(86,7,7) occ(97,7,3) occ(123,7,14) occ(132,7,10) occ(138,7,5) occ(159,7,8) occ(21,8,2) occ(22,8,14) occ(25,8,4) occ(32,8,11) occ(47,8,13) occ(53,8,12) occ(66,8,8) occ(88,8,5) occ(96,8,1) occ(100,8,3) occ(126,8,10) occ(148,8,9) occ(160,8,7) occ(4,9,8) occ(17,9,3) occ(51,9,14) occ(64,9,10) occ(99,9,4) occ(102,9,1) occ(121,9,13) occ(140,9,6) occ(146,9,7) occ(150,9,11) occ(161,9,9) occ(162,9,5) occ(6,10,10) occ(15,10,1) occ(20,10,13) occ(27,10,5) occ(45,10,14) occ(49,10,12) occ(90,10,6) occ(94,10,2) occ(103,10,3) occ(124,10,9) occ(142,10,4) occ(158,10,8) occ(163,10,11) occ(164,10,7) occ(7,11,8) occ(29,11,3) occ(92,11,4) occ(101,11,5) occ(104,11,2) occ(110,11,1) occ(119,11,14) occ(122,11,11) occ(144,11,6) occ(152,11,12) occ(165,11,9) occ(8,12,11) occ(9,12,6) occ(13,12,2) occ(14,12,12) occ(18,12,14) occ(31,12,5) occ(43,12,13) occ(105,12,4) occ(108,12,3) occ(113,12,10) occ(156,12,9) occ(166,12,8) occ(167,12,7) occ(5,13,9) occ(11,13,4) occ(12,13,14) occ(35,13,8) occ(39,13,12) occ(106,13,1) occ(109,13,7) occ(112,13,2) occ(116,13,6) occ(117,13,13) occ(120,13,10) occ(154,13,11) occ(169,13,5) occ(10,14,12) occ(16,14,13) occ(33,14,6) occ(37,14,10) occ(41,14,14) occ(107,14,5) occ(111,14,9) occ(114,14,4) occ(115,14,11) occ(118,14,8) occ(168,14,7)
Optimization: -170
Answer: 8
occ(1,9,12) occ(1,3,3) occ(1,11,7) occ(1,5,3) occ(1,9,2) occ(1,4,9) occ(2,8,6) occ(3,11,10) coverage(176) occ(25,1,11) occ(31,1,10) occ(35,1,6) occ(38,1,13) occ(42,1,9) occ(47,1,8) occ(52,1,14) occ(66,1,7) occ(118,1,5) occ(132,1,4) occ(142,1,1) occ(148,1,2) occ(27,2,13) occ(33,2,8) occ(40,2,11) occ(49,2,10) occ(54,2,12) occ(68,2,5) occ(120,2,7) occ(124,2,9) occ(130,2,6) occ(134,2,2) occ(144,2,3) occ(150,2,4) occ(23,3,12) occ(29,3,11) occ(36,3,14) occ(37,3,5) occ(41,3,7) occ(44,3,10) occ(45,3,9) occ(50,3,13) occ(64,3,6) occ(116,3,4) occ(128,3,8) occ(140,3,2) occ(146,3,1) occ(16,4,7) occ(21,4,14) occ(46,4,12) occ(51,4,11) occ(56,4,13) occ(70,4,4) occ(98,4,2) occ(122,4,8) occ(126,4,10) occ(136,4,3) occ(152,4,5) occ(14,5,9) occ(15,5,10) occ(34,5,13) occ(39,5,6) occ(43,5,8) occ(48,5,14) occ(58,5,11) occ(62,5,7) occ(83,5,12) occ(100,5,4) occ(114,5,5) occ(138,5,1) occ(13,6,12) occ(18,6,8) occ(19,6,13) occ(32,6,11) occ(53,6,10) occ(60,6,9) occ(72,6,5) occ(81,6,14) occ(96,6,1) occ(102,6,6) occ(111,6,3) occ(115,6,7) occ(154,6,4) occ(166,6,2) occ(11,7,14) occ(12,7,8) occ(17,7,11) occ(20,7,10) occ(55,7,12) occ(74,7,7) occ(85,7,13) occ(94,7,3) occ(112,7,6) occ(113,7,5) occ(117,7,9) occ(156,7,2) occ(168,7,4) occ(22,8,8) occ(30,8,10) occ(57,8,14) occ(76,8,9) occ(79,8,13) occ(104,8,5) occ(109,8,4) occ(119,8,11) occ(160,8,3) occ(164,8,1) occ(170,8,2) occ(5,9,11) occ(9,9,13) occ(10,9,9) occ(24,9,10) occ(78,9,7) occ(87,9,14) occ(92,9,4) occ(106,9,3) occ(107,9,6) occ(110,9,5) occ(131,9,8) occ(158,9,1) occ(4,10,7) occ(8,10,11) occ(28,10,9) occ(59,10,13) occ(77,10,14) occ(80,10,5) occ(88,10,3) occ(105,10,4) occ(121,10,12) occ(129,10,10) occ(133,10,6) occ(162,10,2) occ(165,10,8) occ(172,10,1) occ(6,11,9) occ(7,11,12) occ(26,11,11) occ(86,11,1) occ(89,11,13) occ(90,11,5) occ(103,11,6) occ(108,11,4) occ(123,11,14) occ(171,11,8) occ(174,11,3) occ(61,12,14) occ(65,12,10) occ(69,12,12) occ(75,12,13) occ(82,12,4) occ(101,12,8) occ(127,12,11) occ(135,12,5) occ(143,12,3) occ(149,12,2) occ(157,12,6) occ(163,12,9) occ(167,12,7) occ(63,13,12) occ(73,13,11) occ(84,13,2) occ(91,13,14) occ(95,13,10) occ(99,13,6) occ(125,13,13) occ(139,13,4) occ(145,13,5) occ(153,13,3) occ(159,13,8) occ(169,13,9) occ(173,13,7) occ(67,14,11) occ(71,14,13) occ(93,14,12) occ(97,14,8) occ(137,14,6) occ(141,14,2) occ(147,14,3) occ(151,14,1) occ(155,14,5) occ(161,14,10) occ(175,14,9)
Optimization: -176
Answer: 9
occ(1,9,12) occ(1,3,3) occ(1,11,7) occ(1,5,3) occ(1,9,2) occ(1,4,9) occ(2,8,6) occ(3,11,10) coverage(177) occ(15,1,10) occ(21,1,13) occ(50,1,7) occ(55,1,2) occ(56,1,4) occ(116,1,8) occ(124,1,12) occ(130,1,11) occ(146,1,9) occ(150,1,5) occ(154,1,1) occ(158,1,3) occ(17,2,12) occ(23,2,11) occ(48,2,5) occ(54,2,6) occ(57,2,4) occ(58,2,2) occ(122,2,10) occ(126,2,14) occ(132,2,9) occ(148,2,7) occ(152,2,3) occ(160,2,1) occ(13,3,11) occ(19,3,14) occ(25,3,13) occ(52,3,8) occ(53,3,1) occ(59,3,6) occ(68,3,4) occ(82,3,5) occ(114,3,7) occ(118,3,9) occ(128,3,12) occ(144,3,10) occ(156,3,2) occ(11,4,13) occ(29,4,12) occ(46,4,4) occ(60,4,1) occ(61,4,8) occ(67,4,5) occ(70,4,6) occ(84,4,7) occ(120,4,11) occ(134,4,10) occ(138,4,14) occ(162,4,2) occ(27,5,14) occ(42,5,1) occ(51,5,2) occ(65,5,7) occ(66,5,5) occ(80,5,6) occ(86,5,9) occ(95,5,4) occ(108,5,10) occ(112,5,8) occ(136,5,12) occ(142,5,11) occ(9,6,14) occ(31,6,11) occ(44,6,3) occ(45,6,4) occ(62,6,2) occ(63,6,9) occ(69,6,6) occ(72,6,5) occ(106,6,8) occ(121,6,10) occ(140,6,13) occ(164,6,1) occ(40,7,2) occ(43,7,6) occ(49,7,1) occ(64,7,4) occ(78,7,7) occ(88,7,10) occ(93,7,3) occ(97,7,5) occ(110,7,9) occ(119,7,12) occ(123,7,8) occ(149,7,13) occ(7,8,13) occ(33,8,10) occ(47,8,3) occ(71,8,7) occ(74,8,4) occ(83,8,1) occ(90,8,8) occ(91,8,5) occ(104,8,9) occ(151,8,11) occ(166,8,2) occ(5,9,11) occ(35,9,8) occ(38,9,1) occ(41,9,5) occ(76,9,6) occ(81,9,3) occ(92,9,10) occ(99,9,4) occ(117,9,13) occ(125,9,7) occ(147,9,14) occ(153,9,9) occ(4,10,5) occ(36,10,3) occ(39,10,7) occ(73,10,8) occ(77,10,4) occ(85,10,2) occ(89,10,6) occ(94,10,12) occ(102,10,10) occ(115,10,11) occ(127,10,9) occ(167,10,13) occ(168,10,1) occ(14,11,1) occ(37,11,9) occ(75,11,6) occ(79,11,2) occ(87,11,4) occ(96,11,14) occ(100,11,12) occ(101,11,5) occ(129,11,11) occ(145,11,13) occ(155,11,8) occ(170,11,3) occ(6,12,4) occ(12,12,3) occ(20,12,5) occ(26,12,6) occ(34,12,2) occ(103,12,7) occ(109,12,8) occ(113,12,10) occ(131,12,13) occ(139,12,11) occ(159,12,9) occ(165,12,14) occ(169,12,12) occ(172,12,1) occ(10,13,1) occ(16,13,2) occ(24,13,8) occ(30,13,3) occ(98,13,13) occ(105,13,5) occ(135,13,12) occ(143,13,14) occ(157,13,7) occ(161,13,11) occ(171,13,10) occ(175,13,6) occ(176,13,4) occ(8,14,3) occ(18,14,4) occ(22,14,6) occ(28,14,5) occ(32,14,1) occ(107,14,7) occ(111,14,9) occ(133,14,14) occ(137,14,10) occ(141,14,12) occ(163,14,13) occ(173,14,8) occ(174,14,2)
Optimization: -177
Answer: 10
occ(1,9,12) occ(1,3,3) occ(1,11,7) occ(1,5,3) occ(1,9,2) occ(1,4,9) occ(2,8,6) occ(3,11,10) coverage(178) occ(30,1,11) occ(96,1,8) occ(100,1,12) occ(121,1,5) occ(125,1,1) occ(129,1,3) occ(148,1,6) occ(152,1,4) occ(174,1,7) occ(32,2,9) occ(82,2,6) occ(98,2,10) occ(102,2,14) occ(115,2,11) occ(119,2,7) occ(123,2,3) occ(131,2,1) occ(146,2,4) occ(154,2,2) occ(172,2,5) occ(19,3,14) occ(28,3,10) occ(34,3,11) occ(74,3,1) occ(84,3,8) occ(94,3,7) occ(104,3,12) occ(113,3,13) occ(117,3,9) occ(127,3,2) occ(150,3,5) occ(176,3,6) occ(17,4,12) occ(26,4,8) occ(36,4,13) occ(42,4,10) occ(76,4,3) occ(80,4,7) occ(106,4,14) occ(111,4,11) occ(133,4,2) occ(144,4,5) occ(156,4,1) occ(166,4,6) occ(170,4,4) occ(11,5,14) occ(15,5,10) occ(21,5,13) occ(40,5,12) occ(72,5,2) occ(78,5,5) occ(86,5,7) occ(92,5,8) occ(103,5,6) occ(109,5,9) occ(137,5,1) occ(164,5,4) occ(13,6,12) occ(24,6,9) occ(38,6,14) occ(44,6,11) occ(90,6,10) occ(101,6,8) occ(107,6,7) occ(108,6,13) occ(118,6,6) occ(135,6,3) occ(142,6,4) occ(158,6,2) occ(168,6,5) occ(9,7,13) occ(22,7,7) occ(23,7,14) occ(56,7,12) occ(62,7,9) occ(70,7,1) occ(88,7,8) occ(99,7,10) occ(105,7,5) occ(110,7,11) occ(120,7,4) occ(139,7,2) occ(140,7,6) occ(162,7,3) occ(25,8,12) occ(39,8,13) occ(46,8,10) occ(54,8,14) occ(60,8,11) occ(64,8,7) occ(68,8,3) occ(112,8,9) occ(116,8,5) occ(138,8,8) occ(160,8,1) occ(161,8,2) occ(4,9,8) occ(7,9,14) occ(20,9,6) occ(27,9,10) occ(41,9,11) occ(58,9,13) occ(66,9,5) occ(97,9,9) occ(114,9,7) occ(122,9,3) occ(128,9,4) occ(141,9,1) occ(5,10,12) occ(6,10,10) occ(18,10,4) occ(37,10,14) occ(48,10,11) occ(52,10,13) occ(61,10,2) occ(95,10,7) occ(124,10,5) occ(130,10,6) occ(136,10,9) occ(159,10,3) occ(163,10,1) occ(177,10,8) occ(29,11,11) occ(43,11,12) occ(59,11,4) occ(69,11,5) occ(81,11,13) occ(93,11,9) occ(126,11,3) occ(132,11,8) occ(143,11,2) occ(157,11,1) occ(175,11,6) occ(8,12,9) occ(16,12,5) occ(35,12,13) occ(45,12,14) occ(50,12,12) occ(53,12,8) occ(57,12,6) occ(63,12,1) occ(83,12,11) occ(91,12,7) occ(134,12,10) occ(149,12,4) occ(155,12,3) occ(165,12,2) occ(12,13,8) occ(31,13,12) occ(49,13,11) occ(67,13,4) occ(71,13,6) occ(75,13,10) occ(79,13,14) occ(85,13,13) occ(89,13,9) occ(145,13,1) occ(151,13,2) occ(169,13,3) occ(173,13,7) occ(10,14,10) occ(14,14,6) occ(33,14,14) occ(47,14,13) occ(51,14,9) occ(55,14,7) occ(65,14,2) occ(73,14,8) occ(77,14,12) occ(87,14,11) occ(147,14,3) occ(153,14,4) occ(167,14,1) occ(171,14,5)
Optimization: -178
Answer: 11
occ(1,9,12) occ(1,3,3) occ(1,11,7) occ(1,5,3) occ(1,9,2) occ(1,4,9) occ(2,8,6) occ(3,11,10) coverage(179) occ(30,1,11) occ(96,1,8) occ(100,1,12) occ(121,1,5) occ(125,1,1) occ(129,1,3) occ(148,1,6) occ(152,1,4) occ(174,1,7) occ(32,2,9) occ(82,2,6) occ(98,2,10) occ(102,2,14) occ(115,2,11) occ(119,2,7) occ(123,2,3) occ(131,2,1) occ(146,2,4) occ(154,2,2) occ(172,2,5) occ(178,2,8) occ(19,3,14) occ(28,3,10) occ(34,3,11) occ(74,3,1) occ(84,3,8) occ(94,3,7) occ(104,3,12) occ(113,3,13) occ(117,3,9) occ(127,3,2) occ(150,3,5) occ(176,3,6) occ(17,4,12) occ(26,4,8) occ(36,4,13) occ(42,4,10) occ(76,4,3) occ(80,4,7) occ(106,4,14) occ(111,4,11) occ(133,4,2) occ(144,4,5) occ(156,4,1) occ(166,4,6) occ(170,4,4) occ(11,5,14) occ(15,5,10) occ(21,5,13) occ(40,5,12) occ(72,5,2) occ(78,5,5) occ(86,5,7) occ(92,5,8) occ(103,5,6) occ(109,5,9) occ(137,5,1) occ(164,5,4) occ(13,6,12) occ(24,6,9) occ(38,6,14) occ(44,6,11) occ(90,6,10) occ(101,6,8) occ(107,6,7) occ(108,6,13) occ(118,6,6) occ(135,6,3) occ(142,6,4) occ(158,6,2) occ(168,6,5) occ(9,7,13) occ(22,7,7) occ(23,7,14) occ(56,7,12) occ(62,7,9) occ(70,7,1) occ(88,7,8) occ(99,7,10) occ(105,7,5) occ(110,7,11) occ(120,7,4) occ(139,7,2) occ(140,7,6) occ(162,7,3) occ(25,8,12) occ(39,8,13) occ(46,8,10) occ(54,8,14) occ(60,8,11) occ(64,8,7) occ(68,8,3) occ(112,8,9) occ(116,8,5) occ(138,8,8) occ(160,8,1) occ(161,8,2) occ(4,9,8) occ(7,9,14) occ(20,9,6) occ(27,9,10) occ(41,9,11) occ(58,9,13) occ(66,9,5) occ(97,9,9) occ(114,9,7) occ(122,9,3) occ(128,9,4) occ(141,9,1) occ(5,10,12) occ(6,10,10) occ(18,10,4) occ(37,10,14) occ(48,10,11) occ(52,10,13) occ(61,10,2) occ(95,10,7) occ(124,10,5) occ(130,10,6) occ(136,10,9) occ(159,10,3) occ(163,10,1) occ(177,10,8) occ(29,11,11) occ(43,11,12) occ(59,11,4) occ(69,11,5) occ(81,11,13) occ(93,11,9) occ(126,11,3) occ(132,11,8) occ(143,11,2) occ(157,11,1) occ(175,11,6) occ(8,12,9) occ(16,12,5) occ(35,12,13) occ(45,12,14) occ(50,12,12) occ(53,12,8) occ(57,12,6) occ(63,12,1) occ(83,12,11) occ(91,12,7) occ(134,12,10) occ(149,12,4) occ(155,12,3) occ(165,12,2) occ(12,13,8) occ(31,13,12) occ(49,13,11) occ(67,13,4) occ(71,13,6) occ(75,13,10) occ(79,13,14) occ(85,13,13) occ(89,13,9) occ(145,13,1) occ(151,13,2) occ(169,13,3) occ(173,13,7) occ(10,14,10) occ(14,14,6) occ(33,14,14) occ(47,14,13) occ(51,14,9) occ(55,14,7) occ(65,14,2) occ(73,14,8) occ(77,14,12) occ(87,14,11) occ(147,14,3) occ(153,14,4) occ(167,14,1) occ(171,14,5)
Optimization: -179
Answer: 12
occ(1,9,12) occ(1,3,3) occ(1,11,7) occ(1,5,3) occ(1,9,2) occ(1,4,9) occ(2,8,6) occ(3,11,10) coverage(180) occ(44,1,8) occ(48,1,4) occ(54,1,5) occ(64,1,6) occ(68,1,10) occ(69,1,13) occ(74,1,9) occ(83,1,14) occ(137,1,3) occ(154,1,7) occ(178,1,11) occ(42,2,10) occ(46,2,6) occ(50,2,2) occ(56,2,3) occ(62,2,4) occ(65,2,14) occ(66,2,8) occ(71,2,11) occ(72,2,7) occ(81,2,12) occ(135,2,1) occ(139,2,5) occ(156,2,9) occ(176,2,13) occ(30,3,7) occ(40,3,8) occ(52,3,4) occ(60,3,2) occ(67,3,12) occ(70,3,9) occ(76,3,10) occ(79,3,14) occ(82,3,5) occ(85,3,13) occ(146,3,1) occ(152,3,6) occ(158,3,11) occ(28,4,5) occ(34,4,10) occ(58,4,4) occ(63,4,13) occ(73,4,12) occ(78,4,8) occ(84,4,7) occ(87,4,11) occ(133,4,2) occ(141,4,6) occ(148,4,3) occ(174,4,14) occ(32,5,8) occ(38,5,7) occ(77,5,13) occ(80,5,6) occ(86,5,9) occ(95,5,4) occ(144,5,2) occ(150,5,5) occ(160,5,12) occ(164,5,14) occ(168,5,10) occ(18,6,8) occ(26,6,4) occ(36,6,9) occ(61,6,14) occ(75,6,11) occ(88,6,7) occ(89,6,10) occ(93,6,6) occ(131,6,3) occ(143,6,5) occ(166,6,12) occ(172,6,13) occ(16,7,10) occ(24,7,6) occ(39,7,12) occ(90,7,9) occ(91,7,8) occ(97,7,3) occ(114,7,7) occ(119,7,14) occ(129,7,5) occ(142,7,1) occ(147,7,2) occ(162,7,13) occ(170,7,11) occ(14,8,8) occ(20,8,7) occ(37,8,14) occ(41,8,10) occ(59,8,13) occ(92,8,11) occ(112,8,9) occ(116,8,5) occ(121,8,12) occ(140,8,3) occ(145,8,4) occ(7,9,14) occ(22,9,5) occ(43,9,8) occ(94,9,9) occ(99,9,4) occ(110,9,11) occ(117,9,13) occ(118,9,7) occ(123,9,10) occ(127,9,6) occ(138,9,1) occ(149,9,3) occ(4,10,5) occ(5,10,12) occ(12,10,7) occ(13,10,10) occ(35,10,13) occ(57,10,14) occ(96,10,11) occ(120,10,9) occ(125,10,8) occ(136,10,3) occ(151,10,1) occ(165,10,2) occ(169,10,6) occ(173,10,4) occ(9,11,13) occ(15,11,8) occ(19,11,6) occ(45,11,9) occ(101,11,3) occ(108,11,12) occ(115,11,14) occ(122,11,11) occ(134,11,1) occ(167,11,4) occ(175,11,2) occ(6,12,4) occ(10,12,6) occ(11,12,11) occ(25,12,8) occ(33,12,12) occ(55,12,13) occ(98,12,10) occ(106,12,14) occ(107,12,7) occ(124,12,9) occ(153,12,2) occ(159,12,3) occ(163,12,1) occ(171,12,5) occ(17,13,7) occ(21,13,5) occ(27,13,10) occ(31,13,14) occ(47,13,8) occ(51,13,12) occ(102,13,11) occ(103,13,4) occ(109,13,9) occ(113,13,13) occ(128,13,6) occ(132,13,2) occ(157,13,1) occ(177,13,3) occ(8,14,5) occ(23,14,7) occ(29,14,12) occ(49,14,10) occ(53,14,14) occ(100,14,9) occ(104,14,13) occ(105,14,6) occ(111,14,11) occ(126,14,8) occ(130,14,4) occ(155,14,3) occ(161,14,2) occ(179,14,1)
Optimization: -180
Answer: 13
occ(1,9,12) occ(1,3,3) occ(1,11,7) occ(1,5,3) occ(1,9,2) occ(1,4,9) occ(2,8,6) occ(3,11,10) coverage(181) occ(31,1,6) occ(35,1,10) occ(43,1,12) occ(49,1,13) occ(71,1,8) occ(77,1,5) occ(82,1,11) occ(90,1,7) occ(94,1,3) occ(104,1,2) occ(126,1,9) occ(180,1,4) occ(27,2,3) occ(33,2,8) occ(37,2,12) occ(45,2,14) occ(69,2,10) occ(75,2,7) occ(80,2,13) occ(81,2,6) occ(84,2,9) occ(92,2,5) occ(106,2,4) occ(128,2,11) occ(178,2,2) occ(29,3,5) occ(41,3,11) occ(47,3,12) occ(51,3,14) occ(73,3,9) occ(79,3,4) occ(88,3,8) occ(96,3,2) occ(102,3,1) occ(108,3,6) occ(124,3,10) occ(125,3,7) occ(130,3,13) occ(25,4,2) occ(39,4,13) occ(53,4,12) occ(67,4,11) occ(78,4,14) occ(83,4,5) occ(86,4,10) occ(97,4,6) occ(100,4,3) occ(110,4,4) occ(120,4,7) occ(176,4,1) occ(46,5,11) occ(55,5,10) occ(76,5,12) occ(93,5,7) occ(98,5,1) occ(99,5,4) occ(112,5,2) occ(118,5,5) occ(122,5,9) occ(123,5,6) occ(127,5,8) occ(132,5,14) occ(6,6,6) occ(23,6,1) occ(44,6,13) occ(48,6,9) occ(57,6,8) occ(65,6,10) occ(72,6,11) occ(85,6,4) occ(95,6,5) occ(103,6,7) occ(116,6,3) occ(134,6,12) occ(174,6,2) occ(4,7,8) occ(21,7,3) occ(59,7,10) occ(63,7,12) occ(68,7,14) occ(74,7,13) occ(87,7,2) occ(91,7,6) occ(101,7,5) occ(114,7,1) occ(121,7,7) occ(129,7,9) occ(138,7,11) occ(171,7,4) occ(8,8,7) occ(19,8,1) occ(42,8,14) occ(50,8,10) occ(70,8,12) occ(89,8,4) occ(105,8,8) occ(131,8,11) occ(136,8,13) occ(140,8,9) occ(169,8,2) occ(172,8,3) occ(10,9,9) occ(20,9,10) occ(24,9,14) occ(61,9,11) occ(66,9,13) occ(119,9,6) occ(135,9,8) occ(141,9,5) occ(142,9,7) occ(173,9,3) occ(14,10,6) occ(17,10,2) occ(18,10,8) occ(22,10,12) occ(40,10,13) occ(52,10,11) occ(107,10,9) occ(133,10,10) occ(139,10,7) occ(147,10,5) occ(154,10,14) occ(155,10,3) occ(167,10,1) occ(170,10,4) occ(12,11,8) occ(26,11,13) occ(64,11,14) occ(109,11,11) occ(117,11,5) occ(137,11,9) occ(143,11,4) occ(144,11,6) occ(149,11,3) occ(152,11,12) occ(153,11,1) occ(175,11,2) occ(5,12,8) occ(11,12,3) occ(15,12,1) occ(16,12,7) occ(34,12,12) occ(38,12,14) occ(54,12,10) occ(60,12,11) occ(111,12,9) occ(145,12,6) occ(156,12,13) occ(157,12,4) occ(165,12,2) occ(168,12,5) occ(9,13,5) occ(28,13,14) occ(32,13,10) occ(58,13,9) occ(62,13,13) occ(115,13,6) occ(146,13,7) occ(150,13,11) occ(151,13,2) occ(160,13,12) occ(161,13,3) occ(164,13,8) occ(177,13,1) occ(7,14,7) occ(13,14,2) occ(30,14,12) occ(36,14,13) occ(56,14,11) occ(113,14,8) occ(148,14,9) occ(158,14,14) occ(159,14,5) occ(162,14,10) occ(163,14,1) occ(166,14,6) occ(179,14,3)
Optimization: -181
*** Info : (clingo): INTERRUPTED by signal!
SATISFIABLE

TIME LIMIT   : 1
Models       : 13+
  Optimum    : unknown
Optimization : -181
Calls        : 1
Time         : 300.000s (Solving: 285.34s 1st Model: 0.01s Unsat: 0.00s)
CPU Time     : 300.002s
